id: 1119
name: n15-3
group: miplib2010
method: 1

Gurobi 7.0.2 (linux64, Matlab) logging started Fri Apr 20 03:01:02 2018


Gurobi 7.0.2 (linux64) logging started Fri Apr 20 03:01:02 2018

Optimize a model with 29494 rows, 153140 columns and 611000 nonzeros
Coefficient statistics:
  Matrix range     [1e+00, 3e+02]
  Objective range  [1e+00, 3e+02]
  Bounds range     [1e+03, 1e+03]
  RHS range        [1e+00, 5e+02]
Presolve removed 650 rows and 16 columns
Presolve time: 0.27s
Presolved: 28844 rows, 153124 columns, 578768 nonzeros

Iteration    Objective       Primal Inf.    Dual Inf.      Time
       0    0.0000000e+00   1.293185e+04   0.000000e+00      0s
   27543    2.2154709e+04   1.302310e+05   0.000000e+00      5s
   35320    2.3703941e+04   0.000000e+00   0.000000e+00     10s

Solved in 35320 iterations and 9.91 seconds
Optimal objective  2.370394118e+04
status: OPTIMAL
